0001 10
0002 3
0003 7
0004 8
0005 1
0006 10
0007 4
0008 9
0009 1
0010 8
0011 4
0012 8
0013 8
0014 8
0015 8
0016 8
0017 2
0018 10
0019 6
0020 1
0021 3
0022 6
0023 10
0024 4
0025 3
0026 8
0027 4
0028 1
0029 3
0030 8
0031 8
0032 8
0033 2
0034 4
0035 1
0036 5
0037 10
0038 6
0039 4
0040 10
0041 1
0042 4
0043 6
0044 1
0045 1
0046 3
0047 3
0048 5
0049 10
0050 1
0051 5
0052 8
0053 1
0054 10
0055 3
0056 7
0057 1
0058 1
0059 2
0060 9
0061 10
0062 4
0063 8
0064 1
0065 1
0066 10
0067 10
0068 10
0069 2
0070 6
0071 10
0072 3
0073 8
0074 4
0075 10
0076 10
0077 4
0078 10
0079 1
0080 7
0081 5
0082 10
0083 3
0084 7
0085 5
0086 6
0087 3
0088 4
0089 7
0090 10
0091 2
0092 1
0093 2
0094 5
0095 7
0096 9
0097 9
0098 6
0099 8
0100 7
0101 8
0102 8
0103 8
0104 8
0105 8
0106 10
0107 3
0108 7
0109 8
0110 2
0111 5
0112 3
0113 1
0114 4
0115 10
0116 8
0117 1
0118 6
0119 6
0120 1
0121 10
0122 9
0123 4
0124 6
0125 8
0126 8
0127 9
0128 4
0129 1
0130 3
0131 4
0132 5
0133 8
0134 6
0135 7
0136 6
0137 1
0138 1
0139 5
0140 8
0141 8
0142 1
0143 9
0144 6
0145 3
0146 9
0147 10
0148 1
0149 1
0150 2
0151 5
0152 6
0153 7
0154 9
0155 10
0156 10
0157 10
0158 10
0159 8
0160 4
0161 7
0162 3
0163 6
0164 9
0165 10
0166 5
0167 3
0168 10
0169 5
0170 10
0171 3
0172 3
0173 5
0174 7
0175 10
0176 9
0177 7
0178 1
0179 4
0180 7
0181 8
0182 7
0183 8
0184 10
